language Essence 1.3

letting blksize_delta be
        function(1 --> 10, 2 --> 10, 3 --> 10, 4 --> 10, 5 --> 10, 6 --> 10, 7 --> 10, 8 --> 10, 9 --> 10, 10 --> 10,
                 11 --> 10, 12 --> 10, 13 --> 10, 14 --> 10, 15 --> 10, 16 --> 10, 17 --> 10, 18 --> 10, 19 --> 10,
                 20 --> 10)
letting maxcars be
        function(1 --> 9, 2 --> 9, 3 --> 9, 4 --> 9, 5 --> 9, 6 --> 9, 7 --> 9, 8 --> 9, 9 --> 9, 10 --> 9, 11 --> 9,
                 12 --> 9, 13 --> 9, 14 --> 9, 15 --> 9, 16 --> 9, 17 --> 9, 18 --> 9, 19 --> 10, 20 --> 9)
letting n_cars be 233
letting n_classes be 34
letting n_options be 20
letting quantity be
        function(1 --> 6, 2 --> 6, 3 --> 6, 4 --> 6, 5 --> 27, 6 --> 6, 7 --> 6, 8 --> 6, 9 --> 6, 10 --> 8, 11 --> 6,
                 12 --> 6, 13 --> 6, 14 --> 6, 15 --> 6, 16 --> 6, 17 --> 12, 18 --> 6, 19 --> 6, 20 --> 6, 21 --> 6,
                 22 --> 6, 23 --> 6, 24 --> 6, 25 --> 6, 26 --> 6, 27 --> 6, 28 --> 6, 29 --> 6, 30 --> 6, 31 --> 6,
                 32 --> 6, 33 --> 6, 34 --> 6)
letting usage be
        relation((1, 7), (1, 16), (1, 17), (2, 2), (2, 3), (3, 2), (3, 15), (4, 1), (4, 3), (4, 10), (4, 19), (5, 3),
                 (5, 8), (5, 13), (6, 9), (6, 10), (7, 3), (7, 6), (7, 7), (7, 14), (7, 15), (8, 9), (8, 12), (8, 18),
                 (9, 18), (10, 3), (10, 8), (11, 15), (12, 5), (12, 14), (12, 17), (12, 20), (13, 20), (14, 9),
                 (14, 11), (14, 14), (14, 19), (15, 5), (15, 6), (15, 8), (16, 13), (16, 18), (16, 20), (17, 1),
                 (17, 5), (18, 4), (18, 7), (19, 3), (19, 11), (20, 1), (20, 4), (20, 8), (20, 14), (21, 20), (22, 15),
                 (23, 12), (24, 8), (24, 11), (25, 20), (26, 1), (26, 6), (26, 16), (27, 3), (27, 6), (27, 13),
                 (27, 14), (28, 11), (29, 1), (29, 20), (30, 20), (31, 2), (31, 7), (32, 20), (33, 7), (34, 12),
                 (34, 14), (34, 20))
$ Visualisation for usage
$  1  7
$  1 16
$  1 17
$  2  2
$  2  3
$  3  2
$  3 15
$  4  1
$  4  3
$  4 10
$  4 19
$  5  3
$  5  8
$  5 13
$  6  9
$  6 10
$  7  3
$  7  6
$  7  7
$  7 14
$  7 15
$  8  9
$  8 12
$  8 18
$  9 18
$ 10  3
$ 10  8
$ 11 15
$ 12  5
$ 12 14
$ 12 17
$ 12 20
$ 13 20
$ 14  9
$ 14 11
$ 14 14
$ 14 19
$ 15  5
$ 15  6
$ 15  8
$ 16 13
$ 16 18
$ 16 20
$ 17  1
$ 17  5
$ 18  4
$ 18  7
$ 19  3
$ 19 11
$ 20  1
$ 20  4
$ 20  8
$ 20 14
$ 21 20
$ 22 15
$ 23 12
$ 24  8
$ 24 11
$ 25 20
$ 26  1
$ 26  6
$ 26 16
$ 27  3
$ 27  6
$ 27 13
$ 27 14
$ 28 11
$ 29  1
$ 29 20
$ 30 20
$ 31  2
$ 31  7
$ 32 20
$ 33  7
$ 34 12
$ 34 14
$ 34 20

